data/benchmarks/bayes/75-10-8-q.cnf
p cnf 460 465
c weights 0.81796 0.18203999999999998 1 1 1 1 1 1 1 1 1 1 1 1 1 1 1 1 1 1 1 1 1 1 1 1 1 1 1 1 1 1 1 1 1 1 1 1 1 1 1 1 1 1 1 1 1 1 1 1 1 1 1 1 1 1 1 1 1 1 1 1 1 1 1 1 1 1 1 1 1 1 1 1 1 1 1 1 1 1 1 1 1 1 1 1 1 1 1 1 1 1 1 1 1 1 1 1 1 1 1 1 1 1 1 1 1 1 1 1 1 1 1 1 1 1 1 1 1 1 1 1 1 1 1 1 1 1 1 1 1 1 1 1 1 1 1 1 1 1 1 1 1 1 1 1 1 1 1 1 1 1 1 1 1 1 1 1 1 1 1 1 1 1 1 1 1 1 1 1 1 1 1 1 1 1 1 1 1 1 1 1 1 1 1 1 1 1 1 1 1 1 1 1 1 1 1 1 1 1 0.5 0.5 0.5 0.5 0.5 0.5 0.5 0.5 0.5 0.5 0.5 0.5 0.5 0.5 0.5 0.5 0.5 0.5 0.5 0.5 0.0109104 0.9890896 0.409916 0.590084 0.5 0.5 0.5 0.5 0.5 0.5 0.5 0.5 0.5 0.5 0.5 0.5 0.5 0.5 0.5 0.5 0.5 0.5 0.5 0.5 0.5 0.5 0.5 0.5 0.5 0.5 0.5 0.5 0.5 0.5 0.5 0.5 0.5 0.5 0.5 0.5 0.5 0.5 0.5 0.5 0.5 0.5 0.5 0.5 0.5 0.5 0.5 0.5 0.88226 0.11773999999999996 0.0208244 0.9791756 0.296273 0.703727 0.529201 0.47079899999999997 0.394029 0.605971 0.716611 0.283389 0.462787 0.5372129999999999 0.787082 0.21291800000000005 0.5 0.5 0.5 0.5 0.5 0.5 0.5 0.5 0.5 0.5 0.5 0.5 0.5 0.5 0.5 0.5 0.587895 0.41210500000000005 0.534702 0.465298 0.202462 0.797538 0.00869003 0.99130997 0.5 0.5 0.5 0.5 0.502803 0.497197 0.660705 0.339295 0.840392 0.15960799999999997 0.385063 0.6149370000000001 0.5 0.5 0.5 0.5 0.5 0.5 0.5 0.5 0.5 0.5 0.5 0.5 0.5 0.5 0.5 0.5 0.5 0.5 0.5 0.5 0.5 0.5 0.5 0.5 0.0342995 0.9657005 0.531457 0.46854300000000004 0.339484 0.660516 0.859989 0.140011 0.5 0.5 0.5 0.5 0.5 0.5 0.5 0.5 0.5 0.5 0.5 0.5 0.5 0.5 0.5 0.5 0.5 0.5 0.5 0.5 0.5 0.5 0.5 0.5 0.5 0.5 0.5 0.5 0.5 0.5 0.5 0.5 0.5 0.5 0.5 0.5 0.5 0.5 0.5 0.5 0.5 0.5 0.5 0.5 0.5 0.5 0.5 0.5 0.5 0.5 0.5 0.5 0.5 0.5 0.5 0.5 0.5 0.5 0.5 0.5 0.5 0.5 0.5 0.5 0.5 0.5 0.5 0.5 0.217184 0.782816 0.633632 0.366368 0.336798 0.6632020000000001 0.0122458 0.9877542 0.5 0.5 0.5 0.5 0.5 0.5 0.5 0.5 0.137372 0.862628 0.682861 0.31713899999999995 0.883532 0.11646800000000002 0.521973 0.478027 0.5 0.5 0.5 0.5 0.5 0.5 0.5 0.5 0.5 0.5 0.5 0.5 0.5 0.5 0.5 0.5 0.408347 0.591653 0.888788 0.11121199999999998 0.5 0.5 0.5 0.5 0.5 0.5 0.5 0.5 0.5 0.5 0.5 0.5 0.5 0.5 0.5 0.5 0.894532 0.105468 0.589866 0.410134 0.842301 0.15769900000000003 0.0319041 0.9680959 0.5 0.5 0.5 0.5 0.5 0.5 0.5 0.5 0.5 0.5 0.5 0.5 0.5 0.5 0.5 0.5 0.794675 0.20532499999999998 0.876775 0.12322500000000003 0.762297 0.237703 0.203022 0.796978 0.0318317 0.9681683 0.981305 0.018695000000000017 0.733102 0.26689799999999997 0.300515 0.699485 0.334273 0.665727 0.905996 0.09400399999999998 0.984484 0.015515999999999974 0.441735 0.558265 0.5 0.5 0.5 0.5 0.5 0.5 0.5 0.5 0.5 0.5 0.5 0.5 0.5 0.5 0.5 0.5 0.5 0.5 0.5 0.5 0.5 0.5 0.5 0.5 0.5 0.5 0.5 0.5 0.5 0.5 0.5 0.5 0.5 0.5 0.5 0.5 0.5 0.5 0.5 0.5 0.5 0.5 0.5 0.5 0.5 0.5 0.5 0.5 0.5 0.5 0.5 0.5 0.400049 0.599951 0.253796 0.746204 0.118586 0.881414 0.416711 0.583289 0.5 0.5 0.5 0.5 0.5 0.5 0.5 0.5 0.5 0.5 0.5 0.5 0.5 0.5 0.5 0.5 0.5 0.5 0.5 0.5 0.5 0.5 0.5 0.5 0.600629 0.39937100000000003 0.426994 0.573006 0.5 0.5 0.5 0.5 0.5 0.5 0.5 0.5 0.678855 0.321145 0.263868 0.736132 0.563971 0.436029 0.0789038 0.9210962 0.5 0.5 0.5 0.5 0.5 0.5 0.5 0.5 0.40467 0.59533 0.0063127 0.9936873 0.238737 0.761263 0.268664 0.731336 0.983074 0.016925999999999997 0.634066 0.365934 0.276833 0.723167 0.866888 0.133112 0.5 0.5 0.5 0.5 0.5 0.5 0.5 0.5 0.5 0.5 0.5 0.5 0.5 0.5 0.5 0.5 0.5 0.5 0.5 0.5 0.5 0.5 0.5 0.5 0.5 0.5 0.5 0.5 0.5 0.5 0.5 0.5 0.5 0.5 0.5 0.5 0.537035 0.46296499999999996 0.1977 0.8023 0.963533 0.03646700000000003 0.1711 0.8289 0.5 0.5 0.5 0.5 0.5 0.5 0.5 0.5 0.5 0.5 0.5 0.5 0.5 0.5 0.5 0.5 0.5 0.5 0.5 0.5 0.5 0.5 0.5 0.5 0.5 0.5 0.5 0.5 0.5 0.5 0.5 0.5 0.0392664 0.9607336 0.0140598 0.9859402 0.687289 0.31271099999999996 0.307637 0.6923630000000001 0.5 0.5 0.5 0.5 0.5 0.5 0.5 0.5 0.5 0.5 0.5 0.5 0.5 0.5 0.5 0.5 0.0721308 0.9278692 0.2935 0.7065 0.51676 0.48324 0.402724 0.5972759999999999 0.567802 0.43219799999999997 0.464564 0.535436 0.5 0.5 0.5 0.5 0.5 0.5 0.5 0.5 0.5 0.5 0.5 0.5 0.5 0.5 0.5 0.5 0.5 0.5 0.5 0.5 0.5 0.5 0.5 0.5 0.5 0.5 0.5 0.5 0.5 0.5 0.5 0.5 0.305446 0.694554 0.238897 0.761103 0.901641 0.09835899999999997 0.598946 0.401054 0.304365 0.695635 0.546956 0.453044 0.32346 0.6765399999999999 0.768929 0.23107100000000003 0.238004 0.761996 0.705435 0.29456499999999997 0.971245 0.028754999999999975 0.358962 0.641038 0.5 0.5 0.5 0.5 0.5 0.5 0.5 0.5 0.5 0.5 0.5 0.5 0.5 0.5 0.5 0.5 0.5 0.5 0.5 0.5 0.5 0.5 0.5 0.5 0.5 0.5 0.5 0.5 0.533536 0.466464 0.34808 0.65192 0.449966 0.550034 0.289194 0.710806 0.5 0.5 0.5 0.5 0.5 0.5 0.5 0.5 0.126808 0.873192 0.94286 0.05713999999999997 0.20962 0.79038 0.729695 0.270305 0.5 0.5 0.5 0.5 0.5 0.5 0.5 0.5 0.5 0.5 0.5 0.5 0.5 0.5 0.5 0.5 0.329688 0.670312 0.169132 0.8308679999999999 0.312255 0.687745 0.624326 0.37567399999999995 0.5 0.5 0.5 0.5 0.5 0.5 0.5 0.5 0.5 0.5 0.5 0.5 0.5 0.5 0.5 0.5
-1 -2 0
1 2 0
-2 3 0
2 -3 0
-3 4 0
3 -4 0
-4 -5 0
4 5 0
-5 -6 0
5 6 0
-6 -111 7 0
-6 111 -7 0
6 -112 7 0
6 112 -7 0
-7 8 0
7 -8 0
-8 9 0
8 -9 0
-9 10 0
9 -10 0
-1 11 0
1 -11 0
-11 -2 -12 0
-11 2 12 0
11 -2 -12 0
11 2 12 0
-12 -3 -13 0
-12 3 -13 0
12 -3 13 0
12 3 -13 0
-13 -4 14 0
-13 4 14 0
13 -4 14 0
13 4 -14 0
-14 -5 15 0
-14 5 15 0
14 -5 15 0
14 5 -15 0
-15 -6 -137 16 0
-15 -6 137 -16 0
-15 6 -138 16 0
-15 6 138 -16 0
15 -6 -139 16 0
15 -6 139 -16 0
15 6 -140 16 0
15 6 140 -16 0
-16 -7 -141 17 0
-16 -7 141 -17 0
-16 7 -142 17 0
-16 7 142 -17 0
16 -7 -143 17 0
16 -7 143 -17 0
16 7 -144 17 0
16 7 144 -17 0
-17 -8 -18 0
-17 8 -18 0
17 -8 18 0
17 8 18 0
-18 -9 19 0
-18 9 -19 0
18 -9 19 0
18 9 19 0
-19 -10 -153 20 0
-19 -10 153 -20 0
-19 10 -154 20 0
-19 10 154 -20 0
19 -10 -155 20 0
19 -10 155 -20 0
19 10 -156 20 0
19 10 156 -20 0
-11 21 0
11 -21 0
-21 -12 -159 22 0
-21 -12 159 -22 0
-21 12 -160 22 0
-21 12 160 -22 0
21 -12 -161 22 0
21 -12 161 -22 0
21 12 -162 22 0
21 12 162 -22 0
-22 -13 -23 0
-22 13 23 0
22 -13 23 0
22 13 23 0
-23 -14 24 0
-23 14 -24 0
23 -14 24 0
23 14 -24 0
-24 -15 -25 0
-24 15 25 0
24 -15 25 0
24 15 25 0
-25 -16 -175 26 0
-25 -16 175 -26 0
-25 16 -176 26 0
-25 16 176 -26 0
25 -16 -177 26 0
25 -16 177 -26 0
25 16 -178 26 0
25 16 178 -26 0
-26 -17 -27 0
-26 17 27 0
26 -17 -27 0
26 17 27 0
-27 -18 -28 0
-27 18 28 0
27 -18 28 0
27 18 28 0
-28 -19 29 0
-28 19 29 0
28 -19 -29 0
28 19 29 0
-29 -20 -30 0
-29 20 30 0
29 -20 30 0
29 20 30 0
-21 31 0
21 -31 0
-31 -22 32 0
-31 22 -32 0
31 -22 32 0
31 22 32 0
-32 -23 33 0
-32 23 -33 0
32 -23 -33 0
32 23 -33 0
-33 -24 34 0
-33 24 34 0
33 -24 -34 0
33 24 -34 0
-34 -25 -35 0
-34 25 -35 0
34 -25 35 0
34 25 35 0
-35 -26 -213 36 0
-35 -26 213 -36 0
-35 26 -214 36 0
-35 26 214 -36 0
35 -26 -215 36 0
35 -26 215 -36 0
35 26 -216 36 0
35 26 216 -36 0
-36 -27 37 0
-36 27 -37 0
36 -27 -37 0
36 27 37 0
-37 -28 -221 38 0
-37 -28 221 -38 0
-37 28 -222 38 0
-37 28 222 -38 0
37 -28 -223 38 0
37 -28 223 -38 0
37 28 -224 38 0
37 28 224 -38 0
-38 -29 39 0
-38 29 39 0
38 -29 -39 0
38 29 39 0
-39 -30 40 0
-39 30 -40 0
39 -30 40 0
39 30 40 0
-31 -233 41 0
-31 233 -41 0
31 -234 41 0
31 234 -41 0
-41 -32 42 0
-41 32 42 0
41 -32 42 0
41 32 -42 0
-42 -33 -43 0
-42 33 43 0
42 -33 43 0
42 33 43 0
-43 -34 -243 44 0
-43 -34 243 -44 0
-43 34 -244 44 0
-43 34 244 -44 0
43 -34 -245 44 0
43 -34 245 -44 0
43 34 -246 44 0
43 34 246 -44 0
-44 -35 45 0
-44 35 45 0
44 -35 -45 0
44 35 -45 0
-45 -36 -46 0
-45 36 -46 0
45 -36 -46 0
45 36 46 0
-46 -37 -255 47 0
-46 -37 255 -47 0
-46 37 -256 47 0
-46 37 256 -47 0
46 -37 -257 47 0
46 -37 257 -47 0
46 37 -258 47 0
46 37 258 -47 0
-47 -38 -259 48 0
-47 -38 259 -48 0
-47 38 -260 48 0
-47 38 260 -48 0
47 -38 -261 48 0
47 -38 261 -48 0
47 38 -262 48 0
47 38 262 -48 0
-48 -39 -263 49 0
-48 -39 263 -49 0
-48 39 -264 49 0
-48 39 264 -49 0
48 -39 -265 49 0
48 -39 265 -49 0
48 39 -266 49 0
48 39 266 -49 0
-49 -40 -50 0
-49 40 50 0
49 -40 50 0
49 40 50 0
-41 51 0
41 -51 0
-51 -42 52 0
-51 42 52 0
51 -42 52 0
51 42 -52 0
-52 -43 -53 0
-52 43 -53 0
52 -43 53 0
52 43 53 0
-53 -44 -54 0
-53 44 -54 0
53 -44 54 0
53 44 -54 0
-54 -45 -55 0
-54 45 55 0
54 -45 55 0
54 45 -55 0
-55 -46 56 0
-55 46 -56 0
55 -46 -56 0
55 46 56 0
-56 -47 -293 57 0
-56 -47 293 -57 0
-56 47 -294 57 0
-56 47 294 -57 0
56 -47 -295 57 0
56 -47 295 -57 0
56 47 -296 57 0
56 47 296 -57 0
-57 -48 58 0
-57 48 -58 0
57 -48 -58 0
57 48 -58 0
-58 -49 59 0
-58 49 -59 0
58 -49 -59 0
58 49 -59 0
-59 -50 60 0
-59 50 60 0
59 -50 -60 0
59 50 -60 0
-51 -309 61 0
-51 309 -61 0
51 -310 61 0
51 310 -61 0
-61 -52 -62 0
-61 52 62 0
61 -52 -62 0
61 52 62 0
-62 -53 -315 63 0
-62 -53 315 -63 0
-62 53 -316 63 0
-62 53 316 -63 0
62 -53 -317 63 0
62 -53 317 -63 0
62 53 -318 63 0
62 53 318 -63 0
-63 -54 64 0
-63 54 64 0
63 -54 64 0
63 54 -64 0
-64 -55 -323 65 0
-64 -55 323 -65 0
-64 55 -324 65 0
-64 55 324 -65 0
64 -55 -325 65 0
64 -55 325 -65 0
64 55 -326 65 0
64 55 326 -65 0
-65 -56 -327 66 0
-65 -56 327 -66 0
-65 56 -328 66 0
-65 56 328 -66 0
65 -56 -329 66 0
65 -56 329 -66 0
65 56 -330 66 0
65 56 330 -66 0
-66 -57 -67 0
-66 57 -67 0
66 -57 67 0
66 57 67 0
-67 -58 -68 0
-67 58 68 0
67 -58 68 0
67 58 68 0
-68 -59 69 0
-68 59 -69 0
68 -59 -69 0
68 59 69 0
-69 -60 -70 0
-69 60 -70 0
69 -60 70 0
69 60 -70 0
-61 71 0
61 -71 0
-71 -62 -349 72 0
-71 -62 349 -72 0
-71 62 -350 72 0
-71 62 350 -72 0
71 -62 -351 72 0
71 -62 351 -72 0
71 62 -352 72 0
71 62 352 -72 0
-72 -63 73 0
-72 63 73 0
72 -63 -73 0
72 63 73 0
-73 -64 74 0
-73 64 74 0
73 -64 74 0
73 64 -74 0
-74 -65 -75 0
-74 65 -75 0
74 -65 -75 0
74 65 75 0
-75 -66 -76 0
-75 66 76 0
75 -66 76 0
75 66 -76 0
-76 -67 -369 77 0
-76 -67 369 -77 0
-76 67 -370 77 0
-76 67 370 -77 0
76 -67 -371 77 0
76 -67 371 -77 0
76 67 -372 77 0
76 67 372 -77 0
-77 -68 78 0
-77 68 -78 0
77 -68 78 0
77 68 -78 0
-78 -69 -79 0
-78 69 79 0
78 -69 -79 0
78 69 -79 0
-79 -70 -381 80 0
-79 -70 381 -80 0
-79 70 -382 80 0
-79 70 382 -80 0
79 -70 -383 80 0
79 -70 383 -80 0
79 70 -384 80 0
79 70 384 -80 0
-71 -385 81 0
-71 385 -81 0
71 -386 81 0
71 386 -81 0
-81 -72 82 0
-81 72 82 0
81 -72 -82 0
81 72 82 0
-82 -73 -83 0
-82 73 83 0
82 -73 83 0
82 73 83 0
-83 -74 -84 0
-83 74 84 0
83 -74 -84 0
83 74 -84 0
-84 -75 -85 0
-84 75 -85 0
84 -75 85 0
84 75 -85 0
-85 -76 -403 86 0
-85 -76 403 -86 0
-85 76 -404 86 0
-85 76 404 -86 0
85 -76 -405 86 0
85 -76 405 -86 0
85 76 -406 86 0
85 76 406 -86 0
-86 -77 -407 87 0
-86 -77 407 -87 0
-86 77 -408 87 0
-86 77 408 -87 0
86 -77 -409 87 0
86 -77 409 -87 0
86 77 -410 87 0
86 77 410 -87 0
-87 -78 -411 88 0
-87 -78 411 -88 0
-87 78 -412 88 0
-87 78 412 -88 0
87 -78 -413 88 0
87 -78 413 -88 0
87 78 -414 88 0
87 78 414 -88 0
-88 -79 89 0
-88 79 -89 0
88 -79 -89 0
88 79 -89 0
-89 -80 90 0
-89 80 -90 0
89 -80 -90 0
89 80 90 0
-81 91 0
81 -91 0
-91 -82 92 0
-91 82 -92 0
91 -82 -92 0
91 82 92 0
-92 -83 -429 93 0
-92 -83 429 -93 0
-92 83 -430 93 0
-92 83 430 -93 0
92 -83 -431 93 0
92 -83 431 -93 0
92 83 -432 93 0
92 83 432 -93 0
-93 -84 94 0
-93 84 -94 0
93 -84 94 0
93 84 -94 0
-94 -85 -437 95 0
-94 -85 437 -95 0
-94 85 -438 95 0
-94 85 438 -95 0
94 -85 -439 95 0
94 -85 439 -95 0
94 85 -440 95 0
94 85 440 -95 0
-95 -86 96 0
-95 86 96 0
95 -86 -96 0
95 86 -96 0
-96 -87 97 0
-96 87 -97 0
96 -87 -97 0
96 87 -97 0
-97 -88 -449 98 0
-97 -88 449 -98 0
-97 88 -450 98 0
-97 88 450 -98 0
97 -88 -451 98 0
97 -88 451 -98 0
97 88 -452 98 0
97 88 452 -98 0
-98 -89 -99 0
-98 89 99 0
98 -89 99 0
98 89 -99 0
-99 -90 -100 0
-99 90 100 0
99 -90 -100 0
99 90 100 0
100 0
