data/benchmarks/bayes/75-10-8-q.gr
p tw 460 565
38 261
7 17
67 68
99 100
67 77
83 430
8 9
94 439
25 178
8 18
40 50
87 409
76 372
41 42
63 317
73 74
41 51
25 34
73 83
97 449
14 15
14 24
74 75
74 84
56 295
28 224
15 16
66 327
47 48
15 25
49 265
47 57
59 68
55 326
48 49
93 429
48 58
80 90
31 234
15 137
81 82
35 213
7 142
33 42
34 245
81 91
22 23
80 382
84 93
22 32
38 224
62 352
21 162
66 75
46 255
55 56
38 260
7 16
55 65
58 67
25 177
40 49
22 162
76 371
85 438
86 403
79 382
73 82
32 41
14 23
51 310
65 74
47 56
10 156
47 294
6 15
21 22
21 31
80 89
39 48
86 407
54 55
78 412
54 64
62 315
34 244
37 258
38 223
87 88
92 432
87 97
21 161
28 29
28 38
88 89
65 325
88 98
48 263
29 30
41 233
61 62
93 432
61 71
76 370
85 437
2 3
17 141
16 176
2 12
62 63
94 95
79 381
3 4
6 140
71 386
35 36
26 216
35 45
95 96
51 309
72 350
36 37
68 69
68 78
47 293
65 329
85 405
69 70
69 79
86 406
78 411
37 221
54 63
13 22
34 243
88 452
43 44
43 53
38 222
92 431
87 96
47 261
46 55
20 155
76 77
12 160
28 37
76 86
65 324
48 262
79 88
67 370
20 29
44 246
16 175
71 349
70 384
2 11
6 112
77 410
53 62
71 385
6 139
26 215
35 44
53 318
47 256
9 10
72 349
86 95
9 19
68 77
27 36
65 328
85 404
42 43
16 143
42 52
60 69
17 144
75 76
75 85
88 451
16 17
16 26
92 430
47 260
20 154
56 327
49 50
49 59
12 159
65 323
16 138
82 83
95 440
67 369
82 92
23 24
70 383
23 33
83 84
6 111
26 178
77 409
24 25
56 57
98 450
56 66
53 317
64 326
47 255
57 58
57 296
89 90
89 99
87 413
30 40
16 142
39 265
76 403
31 32
88 414
71 352
43 244
36 214
34 43
64 65
5 6
67 76
20 153
83 429
97 98
94 438
8 17
87 408
16 137
95 439
63 316
82 91
77 372
26 177
77 408
74 83
19 156
56 294
28 223
98 449
56 65
15 24
53 316
49 264
57 295
55 325
89 98
48 57
87 412
31 233
63 64
63 73
39 264
4 5
7 141
4 14
43 243
80 381
97 452
22 31
36 213
62 351
37 38
37 47
66 330
38 259
55 64
70 80
94 437
25 176
29 39
11 12
87 407
22 161
11 21
15 140
63 315
62 72
76 406
35 216
44 45
77 371
44 54
3 13
56 293
28 222
46 258
36 46
96 97
49 263
18 19
10 155
18 28
83 432
55 324
87 411
10 20
97 451
37 257
62 350
21 160
85 86
66 329
88 97
77 78
25 175
29 38
77 87
93 431
22 160
76 369
86 410
15 139
62 71
35 215
7 144
62 318
77 370
51 52
3 12
51 61
46 257
36 45
38 262
10 154
48 266
55 323
69 78
7 112
86 405
85 440
10 19
25 26
79 384
25 35
43 52
37 256
38 221
21 159
17 18
17 27
66 328
76 85
47 296
48 261
50 60
77 86
93 430
44 245
86 409
83 93
78 414
37 224
62 317
34 246
6 138
24 34
84 85
26 214
84 94
9 18
57 67
10 153
65 327
48 265
58 59
85 403
58 68
42 51
90 100
7 111
86 404
16 178
17 143
31 41
91 92
85 439
75 84
79 383
88 450
32 33
32 42
16 25
64 74
37 255
92 429
47 259
5 15
65 66
17 26
72 352
65 75
49 58
6 7
47 295
48 260
6 16
98 99
50 59
39 40
44 244
70 382
39 49
23 32
86 408
83 92
78 413
37 223
62 316
72 73
6 137
24 33
72 82
26 213
64 325
56 330
57 66
12 162
65 326
48 264
30 39
16 141
41 234
67 372
90 99
61 310
88 413
16 177
17 142
71 351
88 449
64 73
38 39
47 258
5 14
38 48
72 351
65 330
48 259
71 72
85 406
71 81
95 438
12 13
12 22
44 243
70 381
26 176
37 222
13 14
77 407
45 46
13 23
45 55
19 155
72 81
81 386
53 315
64 324
46 47
78 79
47 262
46 56
20 156
57 294
56 329
78 88
12 161
19 20
19 29
79 80
16 140
79 89
63 72
67 371
39 263
52 53
61 309
20 30
4 13
88 412
52 62
71 350
53 54
53 63
37 46
85 95
98 452
26 27
26 36
47 257
86 87
38 47
86 96
70 79
27 28
27 37
16 144
95 437
76 405
12 21
60 70
44 53
43 246
1 2
26 175
80 384
1 11
36 216
93 94
45 54
19 154
28 221
81 385
64 323
18 27
56 328
57 293
78 87
83 431
94 440
19 28
87 410
16 139
63 318
88 411
52 61
97 450
62 349
85 94
56 296
98 451
49 266
59 60
26 35
59 69
22 159
92 93
87 414
15 138
33 34
39 266
76 404
35 214
7 143
33 43
77 369
43 245
80 383
34 35
66 67
36 215
34 44
66 76
19 153
46 256
7 8
